benchmark/results/graph__15-1000-0.10-03_5/graph__15-1000-0.10-03_5_QuintonOs_Benders_primal_sub.lp
\ This file has been generated by DOcplex
\ ENCODING=ISO-8859-1
\Problem name: Quinton Bounded Benders_primal_sub

Maximize
 obj: tau
Subject To
 c1: tau <= 0.002024291498
 c2: y_a0_proc_0 + y_a0_proc_1 + y_a0_proc_2 - tau = 0
 c3: y_a0_proc_0 <= 0
 c4: y_a0_proc_1 <= 0
 c5: y_a0_proc_2 <= 1
 c6: tau <= 0.001689189189
 c7: y_a1_proc_0 + y_a1_proc_1 - tau = 0
 c8: y_a1_proc_0 <= 1
 c9: y_a1_proc_1 <= 0
 c10: tau <= 0.001186239620
 c11: y_a2_proc_0 + y_a2_proc_1 + y_a2_proc_2 - tau = 0
 c12: y_a2_proc_0 <= 0
 c13: y_a2_proc_1 <= 1
 c14: y_a2_proc_2 <= 0
 c15: tau <= 0.001144164760
 c16: y_a3_proc_0 + y_a3_proc_1 + y_a3_proc_2 - tau = 0
 c17: y_a3_proc_0 <= 0
 c18: y_a3_proc_1 <= 0
 c19: y_a3_proc_2 <= 1
 c20: tau <= 0.000856164384
 c21: y_a4_proc_1 - tau = 0
 c22: y_a4_proc_1 <= 1
 c23: tau <= 0.001165501166
 c24: y_a5_proc_0 + y_a5_proc_1 - tau = 0
 c25: y_a5_proc_0 <= 0
 c26: y_a5_proc_1 <= 1
 c27: tau <= 0.001265822785
 c28: y_a6_proc_1 + y_a6_proc_2 - tau = 0
 c29: y_a6_proc_1 <= 1
 c30: y_a6_proc_2 <= 0
 c31: tau <= 0.001089324619
 c32: y_a7_proc_1 - tau = 0
 c33: y_a7_proc_1 <= 1
 c34: tau <= 0.001061571125
 c35: y_a8_proc_0 + y_a8_proc_1 + y_a8_proc_2 - tau = 0
 c36: y_a8_proc_0 <= 1
 c37: y_a8_proc_1 <= 0
 c38: y_a8_proc_2 <= 0
 c39: tau <= 0.001801801802
 c40: y_a9_proc_0 + y_a9_proc_1 + y_a9_proc_2 - tau = 0
 c41: y_a9_proc_0 <= 0
 c42: y_a9_proc_1 <= 0
 c43: y_a9_proc_2 <= 1
 c44: tau <= 0.001180637544
 c45: y_a10_proc_0 + y_a10_proc_2 - tau = 0
 c46: y_a10_proc_0 <= 0
 c47: y_a10_proc_2 <= 1
 c48: tau <= 0.001347708895
 c49: y_a11_proc_0 + y_a11_proc_1 + y_a11_proc_2 - tau = 0
 c50: y_a11_proc_0 <= 0
 c51: y_a11_proc_1 <= 1
 c52: y_a11_proc_2 <= 0
 c53: tau <= 0.001148105626
 c54: y_a12_proc_0 + y_a12_proc_2 - tau = 0
 c55: y_a12_proc_0 <= 1
 c56: y_a12_proc_2 <= 0
 c57: tau <= 0.001262626263
 c58: y_a13_proc_1 + y_a13_proc_2 - tau = 0
 c59: y_a13_proc_1 <= 1
 c60: y_a13_proc_2 <= 0
 c61: tau <= 0.000961538462
 c62: y_a14_proc_0 + y_a14_proc_1 - tau = 0
 c63: y_a14_proc_0 <= 1
 c64: y_a14_proc_1 <= 0
 c65: u_a0 - u_a1 - 592 y_a1_proc_0 - 708 y_a1_proc_1 >= -1
 c66: u_a1 - u_a2 - 534 y_a2_proc_0 - 843 y_a2_proc_1 - 766 y_a2_proc_2 >= 0
 c67: u_a1 - u_a3 - 1231 y_a3_proc_0 - 1153 y_a3_proc_1 - 874 y_a3_proc_2 >= 0
 c68: u_a3 - u_a4 - 1168 y_a4_proc_1 >= 0
 c69: u_a5 - u_a2 - 534 y_a2_proc_0 - 843 y_a2_proc_1 - 766 y_a2_proc_2 >= -1
 c70: u_a6 - u_a3 - 1231 y_a3_proc_0 - 1153 y_a3_proc_1 - 874 y_a3_proc_2 >= -1
 c71: u_a4 - u_a7 - 918 y_a7_proc_1 >= 0
 c72: u_a4 - u_a8 - 942 y_a8_proc_0 - 914 y_a8_proc_1 - 1290 y_a8_proc_2 >= 0
 c73: u_a9 - u_a5 - 878 y_a5_proc_0 - 858 y_a5_proc_1 >= 0
 c74: u_a8 - u_a10 - 1051 y_a10_proc_0 - 847 y_a10_proc_2 >= 0
 c75: u_a1 - u_a11 - 1269 y_a11_proc_0 - 742 y_a11_proc_1 - 1208 y_a11_proc_2
       >= 0
 c76: u_a7 - u_a12 - 871 y_a12_proc_0 - 1192 y_a12_proc_2 >= 0
 c77: u_a11 - u_a13 - 792 y_a13_proc_1 - 1123 y_a13_proc_2 >= 0
 c78: u_a14 - u_a0 - 1203 y_a0_proc_0 - 1206 y_a0_proc_1 - 494 y_a0_proc_2 >= 0
 c79: u_a14 - u_a3 - 1231 y_a3_proc_0 - 1153 y_a3_proc_1 - 874 y_a3_proc_2 >= 
      -1
 c80: u_a11 - u_a14 - 1040 y_a14_proc_0 - 628 y_a14_proc_1 >= 0
 c81: u_a13 - u_a1 - 592 y_a1_proc_0 - 708 y_a1_proc_1 >= -1
 c82: u_a11 - u_a5 - 878 y_a5_proc_0 - 858 y_a5_proc_1 >= 0
 c83: u_a7 - u_a10 - 1051 y_a10_proc_0 - 847 y_a10_proc_2 >= 0
 c84: u_a12 - u_a11 - 1269 y_a11_proc_0 - 742 y_a11_proc_1 - 1208 y_a11_proc_2
       >= 0
 c85: u_a2 - u_a14 - 1040 y_a14_proc_0 - 628 y_a14_proc_1 >= 0
 c86: u_a5 - u_a10 - 1051 y_a10_proc_0 - 847 y_a10_proc_2 >= 0
 c87: u_a10 - u_a0 - 1203 y_a0_proc_0 - 1206 y_a0_proc_1 - 494 y_a0_proc_2 >= 0
 c88: u_a10 - u_a6 - 790 y_a6_proc_1 - 711 y_a6_proc_2 >= 0
 c89: u_a1 - u_a0 - 1203 y_a0_proc_0 >= -1308
 c90: u_a1 - u_a0 - 1206 y_a0_proc_1 >= -2598
 c91: u_a0 - u_a1 - 592 y_a1_proc_0 >= -1273
 c92: u_a0 - u_a1 - 708 y_a1_proc_1 >= -2563
 c93: u_a2 - u_a0 - 494 y_a0_proc_2 >= -1308
 c94: u_a2 - u_a0 - 1203 y_a0_proc_0 >= -2598
 c95: u_a2 - u_a0 - 1206 y_a0_proc_1 >= -1308
 c96: u_a0 - u_a2 - 766 y_a2_proc_2 >= -1273
 c97: u_a0 - u_a2 - 534 y_a2_proc_0 >= -2563
 c98: u_a0 - u_a2 - 843 y_a2_proc_1 >= -1273
 c99: u_a3 - u_a0 - 494 y_a0_proc_2 >= 0
 c100: u_a3 - u_a0 - 1203 y_a0_proc_0 >= -2580
 c101: u_a3 - u_a0 - 1206 y_a0_proc_1 >= -2580
 c102: u_a0 - u_a3 - 874 y_a3_proc_2 >= -1
 c103: u_a0 - u_a3 - 1231 y_a3_proc_0 >= -2581
 c104: u_a0 - u_a3 - 1153 y_a3_proc_1 >= -2581
 c105: u_a4 - u_a0 - 1206 y_a0_proc_1 >= -1308
 c106: u_a0 - u_a4 - 1168 y_a4_proc_1 >= -1273
 c107: u_a5 - u_a0 - 1203 y_a0_proc_0 >= -2598
 c108: u_a5 - u_a0 - 1206 y_a0_proc_1 >= -1308
 c109: u_a0 - u_a5 - 878 y_a5_proc_0 >= -2563
 c110: u_a0 - u_a5 - 858 y_a5_proc_1 >= -1273
 c111: u_a6 - u_a0 - 494 y_a0_proc_2 >= -1308
 c112: u_a6 - u_a0 - 1206 y_a0_proc_1 >= -1308
 c113: u_a0 - u_a6 - 711 y_a6_proc_2 >= -1273
 c114: u_a0 - u_a6 - 790 y_a6_proc_1 >= -1273
 c115: u_a7 - u_a0 - 1206 y_a0_proc_1 >= -1308
 c116: u_a0 - u_a7 - 918 y_a7_proc_1 >= -1273
 c117: u_a8 - u_a0 - 494 y_a0_proc_2 >= -1273
 c118: u_a8 - u_a0 - 1203 y_a0_proc_0 >= -1273
 c119: u_a8 - u_a0 - 1206 y_a0_proc_1 >= -2563
 c120: u_a0 - u_a8 - 1290 y_a8_proc_2 >= -1308
 c121: u_a0 - u_a8 - 942 y_a8_proc_0 >= -1308
 c122: u_a0 - u_a8 - 914 y_a8_proc_1 >= -2598
 c123: u_a9 - u_a0 - 494 y_a0_proc_2 >= 17
 c124: u_a9 - u_a0 - 1203 y_a0_proc_0 >= -2563
 c125: u_a9 - u_a0 - 1206 y_a0_proc_1 >= -2563
 c126: u_a0 - u_a9 - 555 y_a9_proc_2 >= -18
 c127: u_a0 - u_a9 - 319 y_a9_proc_0 >= -2598
 c128: u_a0 - u_a9 - 732 y_a9_proc_1 >= -2598
 c129: u_a10 - u_a0 - 494 y_a0_proc_2 >= 0
 c130: u_a10 - u_a0 - 1203 y_a0_proc_0 >= -2580
 c131: u_a0 - u_a10 - 847 y_a10_proc_2 >= -1
 c132: u_a0 - u_a10 - 1051 y_a10_proc_0 >= -2581
 c133: u_a11 - u_a0 - 494 y_a0_proc_2 >= -1308
 c134: u_a11 - u_a0 - 1203 y_a0_proc_0 >= -2598
 c135: u_a11 - u_a0 - 1206 y_a0_proc_1 >= -1308
 c136: u_a0 - u_a11 - 1208 y_a11_proc_2 >= -1273
 c137: u_a0 - u_a11 - 1269 y_a11_proc_0 >= -2563
 c138: u_a0 - u_a11 - 742 y_a11_proc_1 >= -1273
 c139: u_a12 - u_a0 - 494 y_a0_proc_2 >= -1308
 c140: u_a12 - u_a0 - 1203 y_a0_proc_0 >= -1308
 c141: u_a0 - u_a12 - 1192 y_a12_proc_2 >= -1273
 c142: u_a0 - u_a12 - 871 y_a12_proc_0 >= -1273
 c143: u_a13 - u_a0 - 494 y_a0_proc_2 >= -1308
 c144: u_a13 - u_a0 - 1206 y_a0_proc_1 >= -1308
 c145: u_a0 - u_a13 - 1123 y_a13_proc_2 >= -1273
 c146: u_a0 - u_a13 - 792 y_a13_proc_1 >= -1273
 c147: u_a14 - u_a0 - 1203 y_a0_proc_0 >= -1308
 c148: u_a14 - u_a0 - 1206 y_a0_proc_1 >= -2598
 c149: u_a0 - u_a14 - 1040 y_a14_proc_0 >= -1273
 c150: u_a0 - u_a14 - 628 y_a14_proc_1 >= -2563
 c151: u_a2 - u_a1 - 592 y_a1_proc_0 >= -1273
 c152: u_a2 - u_a1 - 708 y_a1_proc_1 >= -1273
 c153: u_a1 - u_a2 - 534 y_a2_proc_0 >= -1308
 c154: u_a1 - u_a2 - 843 y_a2_proc_1 >= -1308
 c155: u_a3 - u_a1 - 592 y_a1_proc_0 >= -1308
 c156: u_a3 - u_a1 - 708 y_a1_proc_1 >= -2598
 c157: u_a1 - u_a3 - 1231 y_a3_proc_0 >= -1273
 c158: u_a1 - u_a3 - 1153 y_a3_proc_1 >= -2563
 c159: u_a4 - u_a1 - 708 y_a1_proc_1 >= -1308
 c160: u_a1 - u_a4 - 1168 y_a4_proc_1 >= -1273
 c161: u_a5 - u_a1 - 592 y_a1_proc_0 >= -1308
 c162: u_a5 - u_a1 - 708 y_a1_proc_1 >= -1308
 c163: u_a1 - u_a5 - 878 y_a5_proc_0 >= -1273
 c164: u_a1 - u_a5 - 858 y_a5_proc_1 >= -1273
 c165: u_a6 - u_a1 - 708 y_a1_proc_1 >= -1273
 c166: u_a1 - u_a6 - 790 y_a6_proc_1 >= -1308
 c167: u_a7 - u_a1 - 708 y_a1_proc_1 >= -1308
 c168: u_a1 - u_a7 - 918 y_a7_proc_1 >= -1273
 c169: u_a8 - u_a1 - 592 y_a1_proc_0 >= -1
 c170: u_a8 - u_a1 - 708 y_a1_proc_1 >= -2581
 c171: u_a1 - u_a8 - 942 y_a8_proc_0 >= 0
 c172: u_a1 - u_a8 - 914 y_a8_proc_1 >= -2580
 c173: u_a9 - u_a1 - 592 y_a1_proc_0 >= -1273
 c174: u_a9 - u_a1 - 708 y_a1_proc_1 >= -2563
 c175: u_a1 - u_a9 - 319 y_a9_proc_0 >= -1308
 c176: u_a1 - u_a9 - 732 y_a9_proc_1 >= -2598
 c177: u_a10 - u_a1 - 592 y_a1_proc_0 >= -1308
 c178: u_a1 - u_a10 - 1051 y_a10_proc_0 >= -1273
 c179: u_a11 - u_a1 - 592 y_a1_proc_0 >= -1308
 c180: u_a11 - u_a1 - 708 y_a1_proc_1 >= -1308
 c181: u_a1 - u_a11 - 1269 y_a11_proc_0 >= -1273
 c182: u_a1 - u_a11 - 742 y_a11_proc_1 >= -1273
 c183: u_a12 - u_a1 - 592 y_a1_proc_0 >= -1
 c184: u_a1 - u_a12 - 871 y_a12_proc_0 >= 0
 c185: u_a13 - u_a1 - 708 y_a1_proc_1 >= -1308
 c186: u_a1 - u_a13 - 792 y_a13_proc_1 >= -1273
 c187: u_a14 - u_a1 - 592 y_a1_proc_0 >= -1
 c188: u_a14 - u_a1 - 708 y_a1_proc_1 >= -2581
 c189: u_a1 - u_a14 - 1040 y_a14_proc_0 >= 0
 c190: u_a1 - u_a14 - 628 y_a14_proc_1 >= -2580
 c191: u_a3 - u_a2 - 766 y_a2_proc_2 >= -1308
 c192: u_a3 - u_a2 - 534 y_a2_proc_0 >= -2598
 c193: u_a3 - u_a2 - 843 y_a2_proc_1 >= -1308
 c194: u_a2 - u_a3 - 874 y_a3_proc_2 >= -1273
 c195: u_a2 - u_a3 - 1231 y_a3_proc_0 >= -2563
 c196: u_a2 - u_a3 - 1153 y_a3_proc_1 >= -1273
 c197: u_a4 - u_a2 - 843 y_a2_proc_1 >= -1
 c198: u_a2 - u_a4 - 1168 y_a4_proc_1 >= 0
 c199: u_a5 - u_a2 - 534 y_a2_proc_0 >= -2581
 c200: u_a5 - u_a2 - 843 y_a2_proc_1 >= -1
 c201: u_a2 - u_a5 - 878 y_a5_proc_0 >= -2580
 c202: u_a2 - u_a5 - 858 y_a5_proc_1 >= 0
 c203: u_a6 - u_a2 - 766 y_a2_proc_2 >= -2581
 c204: u_a6 - u_a2 - 843 y_a2_proc_1 >= -1
 c205: u_a2 - u_a6 - 711 y_a6_proc_2 >= -2580
 c206: u_a2 - u_a6 - 790 y_a6_proc_1 >= 0
 c207: u_a7 - u_a2 - 843 y_a2_proc_1 >= -1
 c208: u_a2 - u_a7 - 918 y_a7_proc_1 >= 0
 c209: u_a8 - u_a2 - 766 y_a2_proc_2 >= -2563
 c210: u_a8 - u_a2 - 534 y_a2_proc_0 >= -1273
 c211: u_a8 - u_a2 - 843 y_a2_proc_1 >= -1273
 c212: u_a2 - u_a8 - 1290 y_a8_proc_2 >= -2598
 c213: u_a2 - u_a8 - 942 y_a8_proc_0 >= -1308
 c214: u_a2 - u_a8 - 914 y_a8_proc_1 >= -1308
 c215: u_a9 - u_a2 - 766 y_a2_proc_2 >= -1308
 c216: u_a9 - u_a2 - 534 y_a2_proc_0 >= -2598
 c217: u_a9 - u_a2 - 843 y_a2_proc_1 >= -1308
 c218: u_a2 - u_a9 - 555 y_a9_proc_2 >= -1273
 c219: u_a2 - u_a9 - 319 y_a9_proc_0 >= -2563
 c220: u_a2 - u_a9 - 732 y_a9_proc_1 >= -1273
 c221: u_a10 - u_a2 - 766 y_a2_proc_2 >= -1308
 c222: u_a10 - u_a2 - 534 y_a2_proc_0 >= -2598
 c223: u_a2 - u_a10 - 847 y_a10_proc_2 >= -1273
 c224: u_a2 - u_a10 - 1051 y_a10_proc_0 >= -2563
 c225: u_a11 - u_a2 - 766 y_a2_proc_2 >= -2581
 c226: u_a11 - u_a2 - 534 y_a2_proc_0 >= -2581
 c227: u_a11 - u_a2 - 843 y_a2_proc_1 >= -1
 c228: u_a2 - u_a11 - 1208 y_a11_proc_2 >= -2580
 c229: u_a2 - u_a11 - 1269 y_a11_proc_0 >= -2580
 c230: u_a2 - u_a11 - 742 y_a11_proc_1 >= 0
 c231: u_a12 - u_a2 - 766 y_a2_proc_2 >= -2598
 c232: u_a12 - u_a2 - 534 y_a2_proc_0 >= -1308
 c233: u_a2 - u_a12 - 1192 y_a12_proc_2 >= -2563
 c234: u_a2 - u_a12 - 871 y_a12_proc_0 >= -1273
 c235: u_a13 - u_a2 - 766 y_a2_proc_2 >= -2581
 c236: u_a13 - u_a2 - 843 y_a2_proc_1 >= -1
 c237: u_a2 - u_a13 - 1123 y_a13_proc_2 >= -2580
 c238: u_a2 - u_a13 - 792 y_a13_proc_1 >= 0
 c239: u_a14 - u_a2 - 534 y_a2_proc_0 >= -1308
 c240: u_a14 - u_a2 - 843 y_a2_proc_1 >= -1308
 c241: u_a2 - u_a14 - 1040 y_a14_proc_0 >= -1273
 c242: u_a2 - u_a14 - 628 y_a14_proc_1 >= -1273
 c243: u_a4 - u_a3 - 1153 y_a3_proc_1 >= -1308
 c244: u_a3 - u_a4 - 1168 y_a4_proc_1 >= -1273
 c245: u_a5 - u_a3 - 1231 y_a3_proc_0 >= -2598
 c246: u_a5 - u_a3 - 1153 y_a3_proc_1 >= -1308
 c247: u_a3 - u_a5 - 878 y_a5_proc_0 >= -2563
 c248: u_a3 - u_a5 - 858 y_a5_proc_1 >= -1273
 c249: u_a6 - u_a3 - 874 y_a3_proc_2 >= -1308
 c250: u_a6 - u_a3 - 1153 y_a3_proc_1 >= -1308
 c251: u_a3 - u_a6 - 711 y_a6_proc_2 >= -1273
 c252: u_a3 - u_a6 - 790 y_a6_proc_1 >= -1273
 c253: u_a7 - u_a3 - 1153 y_a3_proc_1 >= -1308
 c254: u_a3 - u_a7 - 918 y_a7_proc_1 >= -1273
 c255: u_a8 - u_a3 - 874 y_a3_proc_2 >= -1308
 c256: u_a8 - u_a3 - 1231 y_a3_proc_0 >= -1308
 c257: u_a8 - u_a3 - 1153 y_a3_proc_1 >= -2598
 c258: u_a3 - u_a8 - 1290 y_a8_proc_2 >= -1273
 c259: u_a3 - u_a8 - 942 y_a8_proc_0 >= -1273
 c260: u_a3 - u_a8 - 914 y_a8_proc_1 >= -2563
 c261: u_a9 - u_a3 - 874 y_a3_proc_2 >= 17
 c262: u_a9 - u_a3 - 1231 y_a3_proc_0 >= -2563
 c263: u_a9 - u_a3 - 1153 y_a3_proc_1 >= -2563
 c264: u_a3 - u_a9 - 555 y_a9_proc_2 >= -18
 c265: u_a3 - u_a9 - 319 y_a9_proc_0 >= -2598
 c266: u_a3 - u_a9 - 732 y_a9_proc_1 >= -2598
 c267: u_a10 - u_a3 - 874 y_a3_proc_2 >= -1
 c268: u_a10 - u_a3 - 1231 y_a3_proc_0 >= -2581
 c269: u_a3 - u_a10 - 847 y_a10_proc_2 >= 0
 c270: u_a3 - u_a10 - 1051 y_a10_proc_0 >= -2580
 c271: u_a11 - u_a3 - 874 y_a3_proc_2 >= -1308
 c272: u_a11 - u_a3 - 1231 y_a3_proc_0 >= -2598
 c273: u_a11 - u_a3 - 1153 y_a3_proc_1 >= -1308
 c274: u_a3 - u_a11 - 1208 y_a11_proc_2 >= -1273
 c275: u_a3 - u_a11 - 1269 y_a11_proc_0 >= -2563
 c276: u_a3 - u_a11 - 742 y_a11_proc_1 >= -1273
 c277: u_a12 - u_a3 - 874 y_a3_proc_2 >= -1308
 c278: u_a12 - u_a3 - 1231 y_a3_proc_0 >= -1308
 c279: u_a3 - u_a12 - 1192 y_a12_proc_2 >= -1273
 c280: u_a3 - u_a12 - 871 y_a12_proc_0 >= -1273
 c281: u_a13 - u_a3 - 874 y_a3_proc_2 >= -1308
 c282: u_a13 - u_a3 - 1153 y_a3_proc_1 >= -1308
 c283: u_a3 - u_a13 - 1123 y_a13_proc_2 >= -1273
 c284: u_a3 - u_a13 - 792 y_a13_proc_1 >= -1273
 c285: u_a14 - u_a3 - 1231 y_a3_proc_0 >= -1308
 c286: u_a14 - u_a3 - 1153 y_a3_proc_1 >= -2598
 c287: u_a3 - u_a14 - 1040 y_a14_proc_0 >= -1273
 c288: u_a3 - u_a14 - 628 y_a14_proc_1 >= -2563
 c289: u_a5 - u_a4 - 1168 y_a4_proc_1 >= -1
 c290: u_a4 - u_a5 - 858 y_a5_proc_1 >= 0
 c291: u_a6 - u_a4 - 1168 y_a4_proc_1 >= -1
 c292: u_a4 - u_a6 - 790 y_a6_proc_1 >= 0
 c293: u_a7 - u_a4 - 1168 y_a4_proc_1 >= -1
 c294: u_a4 - u_a7 - 918 y_a7_proc_1 >= 0
 c295: u_a8 - u_a4 - 1168 y_a4_proc_1 >= -1308
 c296: u_a4 - u_a8 - 914 y_a8_proc_1 >= -1273
 c297: u_a9 - u_a4 - 1168 y_a4_proc_1 >= -1273
 c298: u_a4 - u_a9 - 732 y_a9_proc_1 >= -1308
 c299: u_a11 - u_a4 - 1168 y_a4_proc_1 >= -1
 c300: u_a4 - u_a11 - 742 y_a11_proc_1 >= 0
 c301: u_a13 - u_a4 - 1168 y_a4_proc_1 >= -1
 c302: u_a4 - u_a13 - 792 y_a13_proc_1 >= 0
 c303: u_a14 - u_a4 - 1168 y_a4_proc_1 >= -1308
 c304: u_a4 - u_a14 - 628 y_a14_proc_1 >= -1273
 c305: u_a6 - u_a5 - 858 y_a5_proc_1 >= -1
 c306: u_a5 - u_a6 - 790 y_a6_proc_1 >= 0
 c307: u_a7 - u_a5 - 858 y_a5_proc_1 >= 0
 c308: u_a5 - u_a7 - 918 y_a7_proc_1 >= -1
 c309: u_a8 - u_a5 - 878 y_a5_proc_0 >= -1308
 c310: u_a8 - u_a5 - 858 y_a5_proc_1 >= -1308
 c311: u_a5 - u_a8 - 942 y_a8_proc_0 >= -1273
 c312: u_a5 - u_a8 - 914 y_a8_proc_1 >= -1273
 c313: u_a9 - u_a5 - 878 y_a5_proc_0 >= -2563
 c314: u_a9 - u_a5 - 858 y_a5_proc_1 >= -1273
 c315: u_a5 - u_a9 - 319 y_a9_proc_0 >= -2598
 c316: u_a5 - u_a9 - 732 y_a9_proc_1 >= -1308
 c317: u_a10 - u_a5 - 878 y_a5_proc_0 >= -2598
 c318: u_a5 - u_a10 - 1051 y_a10_proc_0 >= -2563
 c319: u_a11 - u_a5 - 878 y_a5_proc_0 >= -2580
 c320: u_a11 - u_a5 - 858 y_a5_proc_1 >= 0
 c321: u_a5 - u_a11 - 1269 y_a11_proc_0 >= -2581
 c322: u_a5 - u_a11 - 742 y_a11_proc_1 >= -1
 c323: u_a12 - u_a5 - 878 y_a5_proc_0 >= -1308
 c324: u_a5 - u_a12 - 871 y_a12_proc_0 >= -1273
 c325: u_a13 - u_a5 - 858 y_a5_proc_1 >= -1
 c326: u_a5 - u_a13 - 792 y_a13_proc_1 >= 0
 c327: u_a14 - u_a5 - 878 y_a5_proc_0 >= -1308
 c328: u_a14 - u_a5 - 858 y_a5_proc_1 >= -1308
 c329: u_a5 - u_a14 - 1040 y_a14_proc_0 >= -1273
 c330: u_a5 - u_a14 - 628 y_a14_proc_1 >= -1273
 c331: u_a7 - u_a6 - 790 y_a6_proc_1 >= 0
 c332: u_a6 - u_a7 - 918 y_a7_proc_1 >= -1
 c333: u_a8 - u_a6 - 711 y_a6_proc_2 >= -2598
 c334: u_a8 - u_a6 - 790 y_a6_proc_1 >= -1308
 c335: u_a6 - u_a8 - 1290 y_a8_proc_2 >= -2563
 c336: u_a6 - u_a8 - 914 y_a8_proc_1 >= -1273
 c337: u_a9 - u_a6 - 711 y_a6_proc_2 >= -1308
 c338: u_a9 - u_a6 - 790 y_a6_proc_1 >= -1308
 c339: u_a6 - u_a9 - 555 y_a9_proc_2 >= -1273
 c340: u_a6 - u_a9 - 732 y_a9_proc_1 >= -1273
 c341: u_a10 - u_a6 - 711 y_a6_proc_2 >= -1273
 c342: u_a6 - u_a10 - 847 y_a10_proc_2 >= -1308
 c343: u_a11 - u_a6 - 711 y_a6_proc_2 >= -2580
 c344: u_a11 - u_a6 - 790 y_a6_proc_1 >= 0
 c345: u_a6 - u_a11 - 1208 y_a11_proc_2 >= -2581
 c346: u_a6 - u_a11 - 742 y_a11_proc_1 >= -1
 c347: u_a12 - u_a6 - 711 y_a6_proc_2 >= -2598
 c348: u_a6 - u_a12 - 1192 y_a12_proc_2 >= -2563
 c349: u_a13 - u_a6 - 711 y_a6_proc_2 >= -2580
 c350: u_a13 - u_a6 - 790 y_a6_proc_1 >= 0
 c351: u_a6 - u_a13 - 1123 y_a13_proc_2 >= -2581
 c352: u_a6 - u_a13 - 792 y_a13_proc_1 >= -1
 c353: u_a14 - u_a6 - 790 y_a6_proc_1 >= -1273
 c354: u_a6 - u_a14 - 628 y_a14_proc_1 >= -1308
 c355: u_a8 - u_a7 - 918 y_a7_proc_1 >= -1273
 c356: u_a7 - u_a8 - 914 y_a8_proc_1 >= -1308
 c357: u_a9 - u_a7 - 918 y_a7_proc_1 >= -1308
 c358: u_a7 - u_a9 - 732 y_a9_proc_1 >= -1273
 c359: u_a11 - u_a7 - 918 y_a7_proc_1 >= -1
 c360: u_a7 - u_a11 - 742 y_a11_proc_1 >= 0
 c361: u_a13 - u_a7 - 918 y_a7_proc_1 >= -1
 c362: u_a7 - u_a13 - 792 y_a13_proc_1 >= 0
 c363: u_a14 - u_a7 - 918 y_a7_proc_1 >= -1308
 c364: u_a7 - u_a14 - 628 y_a14_proc_1 >= -1273
 c365: u_a9 - u_a8 - 1290 y_a8_proc_2 >= -1308
 c366: u_a9 - u_a8 - 942 y_a8_proc_0 >= -1308
 c367: u_a9 - u_a8 - 914 y_a8_proc_1 >= -2598
 c368: u_a8 - u_a9 - 555 y_a9_proc_2 >= -1273
 c369: u_a8 - u_a9 - 319 y_a9_proc_0 >= -1273
 c370: u_a8 - u_a9 - 732 y_a9_proc_1 >= -2563
 c371: u_a10 - u_a8 - 1290 y_a8_proc_2 >= -1308
 c372: u_a10 - u_a8 - 942 y_a8_proc_0 >= -1308
 c373: u_a8 - u_a10 - 847 y_a10_proc_2 >= -1273
 c374: u_a8 - u_a10 - 1051 y_a10_proc_0 >= -1273
 c375: u_a11 - u_a8 - 1290 y_a8_proc_2 >= -2598
 c376: u_a11 - u_a8 - 942 y_a8_proc_0 >= -1308
 c377: u_a11 - u_a8 - 914 y_a8_proc_1 >= -1308
 c378: u_a8 - u_a11 - 1208 y_a11_proc_2 >= -2563
 c379: u_a8 - u_a11 - 1269 y_a11_proc_0 >= -1273
 c380: u_a8 - u_a11 - 742 y_a11_proc_1 >= -1273
 c381: u_a12 - u_a8 - 1290 y_a8_proc_2 >= -2580
 c382: u_a12 - u_a8 - 942 y_a8_proc_0 >= 0
 c383: u_a8 - u_a12 - 1192 y_a12_proc_2 >= -2581
 c384: u_a8 - u_a12 - 871 y_a12_proc_0 >= -1
 c385: u_a13 - u_a8 - 1290 y_a8_proc_2 >= -2598
 c386: u_a13 - u_a8 - 914 y_a8_proc_1 >= -1308
 c387: u_a8 - u_a13 - 1123 y_a13_proc_2 >= -2563
 c388: u_a8 - u_a13 - 792 y_a13_proc_1 >= -1273
 c389: u_a14 - u_a8 - 942 y_a8_proc_0 >= -1
 c390: u_a14 - u_a8 - 914 y_a8_proc_1 >= -2581
 c391: u_a8 - u_a14 - 1040 y_a14_proc_0 >= 0
 c392: u_a8 - u_a14 - 628 y_a14_proc_1 >= -2580
 c393: u_a10 - u_a9 - 555 y_a9_proc_2 >= -18
 c394: u_a10 - u_a9 - 319 y_a9_proc_0 >= -2598
 c395: u_a9 - u_a10 - 847 y_a10_proc_2 >= 17
 c396: u_a9 - u_a10 - 1051 y_a10_proc_0 >= -2563
 c397: u_a11 - u_a9 - 555 y_a9_proc_2 >= -1273
 c398: u_a11 - u_a9 - 319 y_a9_proc_0 >= -2563
 c399: u_a11 - u_a9 - 732 y_a9_proc_1 >= -1273
 c400: u_a9 - u_a11 - 1208 y_a11_proc_2 >= -1308
 c401: u_a9 - u_a11 - 1269 y_a11_proc_0 >= -2598
 c402: u_a9 - u_a11 - 742 y_a11_proc_1 >= -1308
 c403: u_a12 - u_a9 - 555 y_a9_proc_2 >= -1308
 c404: u_a12 - u_a9 - 319 y_a9_proc_0 >= -1308
 c405: u_a9 - u_a12 - 1192 y_a12_proc_2 >= -1273
 c406: u_a9 - u_a12 - 871 y_a12_proc_0 >= -1273
 c407: u_a13 - u_a9 - 555 y_a9_proc_2 >= -1273
 c408: u_a13 - u_a9 - 732 y_a9_proc_1 >= -1273
 c409: u_a9 - u_a13 - 1123 y_a13_proc_2 >= -1308
 c410: u_a9 - u_a13 - 792 y_a13_proc_1 >= -1308
 c411: u_a14 - u_a9 - 319 y_a9_proc_0 >= -1308
 c412: u_a14 - u_a9 - 732 y_a9_proc_1 >= -2598
 c413: u_a9 - u_a14 - 1040 y_a14_proc_0 >= -1273
 c414: u_a9 - u_a14 - 628 y_a14_proc_1 >= -2563
 c415: u_a11 - u_a10 - 847 y_a10_proc_2 >= -1308
 c416: u_a11 - u_a10 - 1051 y_a10_proc_0 >= -2598
 c417: u_a10 - u_a11 - 1208 y_a11_proc_2 >= -1273
 c418: u_a10 - u_a11 - 1269 y_a11_proc_0 >= -2563
 c419: u_a12 - u_a10 - 847 y_a10_proc_2 >= -1308
 c420: u_a12 - u_a10 - 1051 y_a10_proc_0 >= -1308
 c421: u_a10 - u_a12 - 1192 y_a12_proc_2 >= -1273
 c422: u_a10 - u_a12 - 871 y_a12_proc_0 >= -1273
 c423: u_a13 - u_a10 - 847 y_a10_proc_2 >= -1308
 c424: u_a10 - u_a13 - 1123 y_a13_proc_2 >= -1273
 c425: u_a14 - u_a10 - 1051 y_a10_proc_0 >= -1308
 c426: u_a10 - u_a14 - 1040 y_a14_proc_0 >= -1273
 c427: u_a12 - u_a11 - 1208 y_a11_proc_2 >= -2598
 c428: u_a12 - u_a11 - 1269 y_a11_proc_0 >= -1308
 c429: u_a11 - u_a12 - 1192 y_a12_proc_2 >= -2563
 c430: u_a11 - u_a12 - 871 y_a12_proc_0 >= -1273
 c431: u_a13 - u_a11 - 1208 y_a11_proc_2 >= -2581
 c432: u_a13 - u_a11 - 742 y_a11_proc_1 >= -1
 c433: u_a11 - u_a13 - 1123 y_a13_proc_2 >= -2580
 c434: u_a11 - u_a13 - 792 y_a13_proc_1 >= 0
 c435: u_a14 - u_a11 - 1269 y_a11_proc_0 >= -1308
 c436: u_a14 - u_a11 - 742 y_a11_proc_1 >= -1308
 c437: u_a11 - u_a14 - 1040 y_a14_proc_0 >= -1273
 c438: u_a11 - u_a14 - 628 y_a14_proc_1 >= -1273
 c439: u_a13 - u_a12 - 1192 y_a12_proc_2 >= -2598
 c440: u_a12 - u_a13 - 1123 y_a13_proc_2 >= -2563
 c441: u_a14 - u_a12 - 871 y_a12_proc_0 >= -1
 c442: u_a12 - u_a14 - 1040 y_a14_proc_0 >= 0
 c443: u_a14 - u_a13 - 792 y_a13_proc_1 >= -1308
 c444: u_a13 - u_a14 - 628 y_a14_proc_1 >= -1273

Bounds
End
